Route #1: 1 18 73 59 39 70 68 44 22 53 1
Route #2: 1 25 2 57 48 28 64 50 66 76 1
Route #3: 1 3 6 31 38 71 30 32 1
Route #4: 1 78 24 45 27 12 65 41 54 26 1
Route #5: 1 51 62 40 14 49 29 75 1
Route #6: 1 9 23 72 13 35 16 52 8 33 1
Route #7: 1 63 10 5 34 56 36 15 42 37 20 11 1
Route #8: 1 58 74 77 47 46 1
Route #9: 1 4 21 55 60 7 17 43 1
Route #10: 1 69 19 67 61 1
cost 1438.3005599569008
